c file created by SAT-TO-DIMACS Wed Jul  8 08:17:39 2015
c 130 -> 130
c 129 -> 129
c 128 -> 128
c 127 -> 127
c 126 -> 126
c 125 -> 125
c 124 -> 124
c 123 -> 123
c 122 -> 122
c 121 -> 121
c 120 -> 120
c 119 -> 119
c 118 -> 118
c 117 -> 117
c 116 -> 116
c 115 -> 115
c 114 -> 114
c 113 -> 113
c 112 -> 112
c 111 -> 111
c 110 -> 110
c 109 -> 109
c 108 -> 108
c 107 -> 107
c 106 -> 106
c 105 -> 105
c 104 -> 104
c 103 -> 103
c 102 -> 102
c 101 -> 101
c 100 -> 100
c 99 -> 99
c 98 -> 98
c 97 -> 97
c 96 -> 96
c 95 -> 95
c 94 -> 94
c 93 -> 93
c 92 -> 92
c 91 -> 91
c 90 -> 90
c 89 -> 89
c 88 -> 88
c 87 -> 87
c 86 -> 86
c 85 -> 85
c 84 -> 84
c 83 -> 83
c 82 -> 82
c 81 -> 81
c 80 -> 80
c 79 -> 79
c 78 -> 78
c 77 -> 77
c 76 -> 76
c 75 -> 75
c 74 -> 74
c 73 -> 73
c 72 -> 72
c 71 -> 71
c 70 -> 70
c 69 -> 69
c 68 -> 68
c 67 -> 67
c 66 -> 66
c 65 -> 65
c 64 -> 64
c 63 -> 63
c 62 -> 62
c 61 -> 61
c 60 -> 60
c 59 -> 59
c 58 -> 58
c 57 -> 57
c 56 -> 56
c 55 -> 55
c 54 -> 54
c 53 -> 53
c 52 -> 52
c 51 -> 51
c 50 -> 50
c 49 -> 49
c 48 -> 48
c 47 -> 47
c 46 -> 46
c 45 -> 45
c 44 -> 44
c 43 -> 43
c 42 -> 42
c 41 -> 41
c 40 -> 40
c 39 -> 39
c 38 -> 38
c 37 -> 37
c 36 -> 36
c 35 -> 35
c 34 -> 34
c 33 -> 33
c 32 -> 32
c 31 -> 31
c 30 -> 30
c 29 -> 29
c 28 -> 28
c 27 -> 27
c 26 -> 26
c 25 -> 25
c 24 -> 24
c 23 -> 23
c 22 -> 22
c 21 -> 21
c 20 -> 20
c 19 -> 19
c 18 -> 18
c 17 -> 17
c 16 -> 16
c 15 -> 15
c 14 -> 14
c 13 -> 13
c 12 -> 12
c 11 -> 11
c 10 -> 10
c 9 -> 9
c 8 -> 8
c 7 -> 7
c 6 -> 6
c 5 -> 5
c 4 -> 4
c 3 -> 3
c 2 -> 2
c 1 -> 1
p cnf 130 2437
 -130 -129 0
 -130 -128 0
 -129 -128 0
 -130 -127 0
 -129 -127 0
 -128 -127 0
 -130 -126 0
 -129 -126 0
 -128 -126 0
 -127 -126 0
 -130 -125 0
 -129 -125 0
 -128 -125 0
 -127 -125 0
 -126 -125 0
 -130 -124 0
 -129 -124 0
 -128 -124 0
 -127 -124 0
 -126 -124 0
 -125 -124 0
 -130 -123 0
 -129 -123 0
 -128 -123 0
 -127 -123 0
 -126 -123 0
 -125 -123 0
 -124 -123 0
 -130 -122 0
 -129 -122 0
 -128 -122 0
 -127 -122 0
 -126 -122 0
 -125 -122 0
 -124 -122 0
 -123 -122 0
 -126 -121 0
 -125 -121 0
 -125 -120 0
 -124 -120 0
 -121 -120 0
 -124 -119 0
 -123 -119 0
 -121 -119 0
 -120 -119 0
 -123 -118 0
 -122 -118 0
 -121 -118 0
 -120 -118 0
 -119 -118 0
 -122 -117 0
 -121 -117 0
 -120 -117 0
 -119 -117 0
 -118 -117 0
 -130 -116 0
 -117 -116 0
 -129 -115 0
 -116 -115 0
 -130 -114 0
 -128 -114 0
 -116 -114 0
 -115 -114 0
 -129 -113 0
 -127 -113 0
 -116 -113 0
 -115 -113 0
 -114 -113 0
 -128 -112 0
 -126 -112 0
 -116 -112 0
 -115 -112 0
 -114 -112 0
 -113 -112 0
 -127 -111 0
 -125 -111 0
 -121 -111 0
 -116 -111 0
 -115 -111 0
 -114 -111 0
 -113 -111 0
 -112 -111 0
 -126 -110 0
 -124 -110 0
 -121 -110 0
 -120 -110 0
 -116 -110 0
 -115 -110 0
 -114 -110 0
 -113 -110 0
 -112 -110 0
 -111 -110 0
 -125 -109 0
 -123 -109 0
 -120 -109 0
 -119 -109 0
 -116 -109 0
 -115 -109 0
 -114 -109 0
 -113 -109 0
 -112 -109 0
 -111 -109 0
 -110 -109 0
 -124 -108 0
 -122 -108 0
 -119 -108 0
 -118 -108 0
 -116 -108 0
 -115 -108 0
 -114 -108 0
 -113 -108 0
 -112 -108 0
 -111 -108 0
 -110 -108 0
 -109 -108 0
 -123 -107 0
 -118 -107 0
 -117 -107 0
 -116 -107 0
 -115 -107 0
 -114 -107 0
 -113 -107 0
 -112 -107 0
 -111 -107 0
 -110 -107 0
 -109 -107 0
 -108 -107 0
 -122 -106 0
 -117 -106 0
 -116 -106 0
 -115 -106 0
 -114 -106 0
 -113 -106 0
 -112 -106 0
 -111 -106 0
 -110 -106 0
 -109 -106 0
 -108 -106 0
 -107 -106 0
 -130 -105 0
 -122 -105 0
 -118 -105 0
 -116 -105 0
 -108 -105 0
 -129 -104 0
 -117 -104 0
 -116 -104 0
 -115 -104 0
 -107 -104 0
 -105 -104 0
 -128 -103 0
 -115 -103 0
 -114 -103 0
 -106 -103 0
 -105 -103 0
 -104 -103 0
 -130 -102 0
 -127 -102 0
 -114 -102 0
 -113 -102 0
 -105 -102 0
 -104 -102 0
 -103 -102 0
 -129 -101 0
 -126 -101 0
 -113 -101 0
 -112 -101 0
 -105 -101 0
 -104 -101 0
 -103 -101 0
 -102 -101 0
 -128 -100 0
 -125 -100 0
 -121 -100 0
 -112 -100 0
 -111 -100 0
 -105 -100 0
 -104 -100 0
 -103 -100 0
 -102 -100 0
 -101 -100 0
 -127 -99 0
 -124 -99 0
 -120 -99 0
 -111 -99 0
 -110 -99 0
 -105 -99 0
 -104 -99 0
 -103 -99 0
 -102 -99 0
 -101 -99 0
 -100 -99 0
 -126 -98 0
 -123 -98 0
 -121 -98 0
 -119 -98 0
 -110 -98 0
 -109 -98 0
 -105 -98 0
 -104 -98 0
 -103 -98 0
 -102 -98 0
 -101 -98 0
 -100 -98 0
 -99 -98 0
 -125 -97 0
 -122 -97 0
 -120 -97 0
 -118 -97 0
 -109 -97 0
 -108 -97 0
 -105 -97 0
 -104 -97 0
 -103 -97 0
 -102 -97 0
 -101 -97 0
 -100 -97 0
 -99 -97 0
 -98 -97 0
 -124 -96 0
 -119 -96 0
 -117 -96 0
 -116 -96 0
 -108 -96 0
 -107 -96 0
 -105 -96 0
 -104 -96 0
 -103 -96 0
 -102 -96 0
 -101 -96 0
 -100 -96 0
 -99 -96 0
 -98 -96 0
 -97 -96 0
 -123 -95 0
 -118 -95 0
 -115 -95 0
 -107 -95 0
 -106 -95 0
 -105 -95 0
 -104 -95 0
 -103 -95 0
 -102 -95 0
 -101 -95 0
 -100 -95 0
 -99 -95 0
 -98 -95 0
 -97 -95 0
 -96 -95 0
 -130 -94 0
 -122 -94 0
 -117 -94 0
 -114 -94 0
 -106 -94 0
 -105 -94 0
 -104 -94 0
 -103 -94 0
 -102 -94 0
 -101 -94 0
 -100 -94 0
 -99 -94 0
 -98 -94 0
 -97 -94 0
 -96 -94 0
 -95 -94 0
 -130 -93 0
 -123 -93 0
 -119 -93 0
 -116 -93 0
 -109 -93 0
 -105 -93 0
 -98 -93 0
 -129 -92 0
 -122 -92 0
 -118 -92 0
 -115 -92 0
 -108 -92 0
 -105 -92 0
 -104 -92 0
 -97 -92 0
 -93 -92 0
 -128 -91 0
 -117 -91 0
 -116 -91 0
 -114 -91 0
 -107 -91 0
 -104 -91 0
 -103 -91 0
 -96 -91 0
 -93 -91 0
 -92 -91 0
 -127 -90 0
 -115 -90 0
 -113 -90 0
 -106 -90 0
 -103 -90 0
 -102 -90 0
 -95 -90 0
 -93 -90 0
 -92 -90 0
 -91 -90 0
 -130 -89 0
 -126 -89 0
 -114 -89 0
 -112 -89 0
 -102 -89 0
 -101 -89 0
 -94 -89 0
 -93 -89 0
 -92 -89 0
 -91 -89 0
 -90 -89 0
 -129 -88 0
 -125 -88 0
 -121 -88 0
 -113 -88 0
 -111 -88 0
 -101 -88 0
 -100 -88 0
 -93 -88 0
 -92 -88 0
 -91 -88 0
 -90 -88 0
 -89 -88 0
 -128 -87 0
 -124 -87 0
 -120 -87 0
 -112 -87 0
 -110 -87 0
 -100 -87 0
 -99 -87 0
 -93 -87 0
 -92 -87 0
 -91 -87 0
 -90 -87 0
 -89 -87 0
 -88 -87 0
 -127 -86 0
 -123 -86 0
 -119 -86 0
 -111 -86 0
 -109 -86 0
 -99 -86 0
 -98 -86 0
 -93 -86 0
 -92 -86 0
 -91 -86 0
 -90 -86 0
 -89 -86 0
 -88 -86 0
 -87 -86 0
 -126 -85 0
 -122 -85 0
 -121 -85 0
 -118 -85 0
 -110 -85 0
 -108 -85 0
 -105 -85 0
 -98 -85 0
 -97 -85 0
 -93 -85 0
 -92 -85 0
 -91 -85 0
 -90 -85 0
 -89 -85 0
 -88 -85 0
 -87 -85 0
 -86 -85 0
 -125 -84 0
 -120 -84 0
 -117 -84 0
 -116 -84 0
 -109 -84 0
 -107 -84 0
 -104 -84 0
 -97 -84 0
 -96 -84 0
 -93 -84 0
 -92 -84 0
 -91 -84 0
 -90 -84 0
 -89 -84 0
 -88 -84 0
 -87 -84 0
 -86 -84 0
 -85 -84 0
 -124 -83 0
 -119 -83 0
 -115 -83 0
 -108 -83 0
 -106 -83 0
 -103 -83 0
 -96 -83 0
 -95 -83 0
 -93 -83 0
 -92 -83 0
 -91 -83 0
 -90 -83 0
 -89 -83 0
 -88 -83 0
 -87 -83 0
 -86 -83 0
 -85 -83 0
 -84 -83 0
 -130 -82 0
 -123 -82 0
 -118 -82 0
 -114 -82 0
 -107 -82 0
 -102 -82 0
 -95 -82 0
 -94 -82 0
 -93 -82 0
 -92 -82 0
 -91 -82 0
 -90 -82 0
 -89 -82 0
 -88 -82 0
 -87 -82 0
 -86 -82 0
 -85 -82 0
 -84 -82 0
 -83 -82 0
 -129 -81 0
 -122 -81 0
 -117 -81 0
 -113 -81 0
 -106 -81 0
 -101 -81 0
 -94 -81 0
 -93 -81 0
 -92 -81 0
 -91 -81 0
 -90 -81 0
 -89 -81 0
 -88 -81 0
 -87 -81 0
 -86 -81 0
 -85 -81 0
 -84 -81 0
 -83 -81 0
 -82 -81 0
 -130 -80 0
 -124 -80 0
 -120 -80 0
 -116 -80 0
 -110 -80 0
 -105 -80 0
 -99 -80 0
 -93 -80 0
 -87 -80 0
 -129 -79 0
 -123 -79 0
 -119 -79 0
 -115 -79 0
 -109 -79 0
 -104 -79 0
 -98 -79 0
 -93 -79 0
 -92 -79 0
 -86 -79 0
 -80 -79 0
 -128 -78 0
 -122 -78 0
 -118 -78 0
 -114 -78 0
 -108 -78 0
 -105 -78 0
 -103 -78 0
 -97 -78 0
 -92 -78 0
 -91 -78 0
 -85 -78 0
 -80 -78 0
 -79 -78 0
 -127 -77 0
 -117 -77 0
 -116 -77 0
 -113 -77 0
 -107 -77 0
 -104 -77 0
 -102 -77 0
 -96 -77 0
 -91 -77 0
 -90 -77 0
 -84 -77 0
 -80 -77 0
 -79 -77 0
 -78 -77 0
 -126 -76 0
 -115 -76 0
 -112 -76 0
 -106 -76 0
 -103 -76 0
 -101 -76 0
 -95 -76 0
 -90 -76 0
 -89 -76 0
 -83 -76 0
 -80 -76 0
 -79 -76 0
 -78 -76 0
 -77 -76 0
 -130 -75 0
 -125 -75 0
 -121 -75 0
 -114 -75 0
 -111 -75 0
 -102 -75 0
 -100 -75 0
 -94 -75 0
 -89 -75 0
 -88 -75 0
 -82 -75 0
 -80 -75 0
 -79 -75 0
 -78 -75 0
 -77 -75 0
 -76 -75 0
 -129 -74 0
 -124 -74 0
 -120 -74 0
 -113 -74 0
 -110 -74 0
 -101 -74 0
 -99 -74 0
 -88 -74 0
 -87 -74 0
 -81 -74 0
 -80 -74 0
 -79 -74 0
 -78 -74 0
 -77 -74 0
 -76 -74 0
 -75 -74 0
 -128 -73 0
 -123 -73 0
 -119 -73 0
 -112 -73 0
 -109 -73 0
 -100 -73 0
 -98 -73 0
 -93 -73 0
 -87 -73 0
 -86 -73 0
 -80 -73 0
 -79 -73 0
 -78 -73 0
 -77 -73 0
 -76 -73 0
 -75 -73 0
 -74 -73 0
 -127 -72 0
 -122 -72 0
 -118 -72 0
 -111 -72 0
 -108 -72 0
 -105 -72 0
 -99 -72 0
 -97 -72 0
 -92 -72 0
 -86 -72 0
 -85 -72 0
 -80 -72 0
 -79 -72 0
 -78 -72 0
 -77 -72 0
 -76 -72 0
 -75 -72 0
 -74 -72 0
 -73 -72 0
 -126 -71 0
 -121 -71 0
 -117 -71 0
 -116 -71 0
 -110 -71 0
 -107 -71 0
 -104 -71 0
 -98 -71 0
 -96 -71 0
 -91 -71 0
 -85 -71 0
 -84 -71 0
 -80 -71 0
 -79 -71 0
 -78 -71 0
 -77 -71 0
 -76 -71 0
 -75 -71 0
 -74 -71 0
 -73 -71 0
 -72 -71 0
 -125 -70 0
 -120 -70 0
 -115 -70 0
 -109 -70 0
 -106 -70 0
 -103 -70 0
 -97 -70 0
 -95 -70 0
 -90 -70 0
 -84 -70 0
 -83 -70 0
 -80 -70 0
 -79 -70 0
 -78 -70 0
 -77 -70 0
 -76 -70 0
 -75 -70 0
 -74 -70 0
 -73 -70 0
 -72 -70 0
 -71 -70 0
 -130 -69 0
 -124 -69 0
 -119 -69 0
 -114 -69 0
 -108 -69 0
 -102 -69 0
 -96 -69 0
 -94 -69 0
 -89 -69 0
 -83 -69 0
 -82 -69 0
 -80 -69 0
 -79 -69 0
 -78 -69 0
 -77 -69 0
 -76 -69 0
 -75 -69 0
 -74 -69 0
 -73 -69 0
 -72 -69 0
 -71 -69 0
 -70 -69 0
 -129 -68 0
 -123 -68 0
 -118 -68 0
 -113 -68 0
 -107 -68 0
 -101 -68 0
 -95 -68 0
 -88 -68 0
 -82 -68 0
 -81 -68 0
 -80 -68 0
 -79 -68 0
 -78 -68 0
 -77 -68 0
 -76 -68 0
 -75 -68 0
 -74 -68 0
 -73 -68 0
 -72 -68 0
 -71 -68 0
 -70 -68 0
 -69 -68 0
 -128 -67 0
 -122 -67 0
 -117 -67 0
 -112 -67 0
 -106 -67 0
 -100 -67 0
 -94 -67 0
 -87 -67 0
 -81 -67 0
 -80 -67 0
 -79 -67 0
 -78 -67 0
 -77 -67 0
 -76 -67 0
 -75 -67 0
 -74 -67 0
 -73 -67 0
 -72 -67 0
 -71 -67 0
 -70 -67 0
 -69 -67 0
 -68 -67 0
 -130 -66 0
 -125 -66 0
 -121 -66 0
 -116 -66 0
 -111 -66 0
 -105 -66 0
 -100 -66 0
 -93 -66 0
 -88 -66 0
 -80 -66 0
 -75 -66 0
 -129 -65 0
 -124 -65 0
 -120 -65 0
 -115 -65 0
 -110 -65 0
 -104 -65 0
 -99 -65 0
 -92 -65 0
 -87 -65 0
 -80 -65 0
 -79 -65 0
 -74 -65 0
 -66 -65 0
 -128 -64 0
 -123 -64 0
 -119 -64 0
 -114 -64 0
 -109 -64 0
 -103 -64 0
 -98 -64 0
 -93 -64 0
 -91 -64 0
 -86 -64 0
 -79 -64 0
 -78 -64 0
 -73 -64 0
 -66 -64 0
 -65 -64 0
 -127 -63 0
 -122 -63 0
 -118 -63 0
 -113 -63 0
 -108 -63 0
 -105 -63 0
 -102 -63 0
 -97 -63 0
 -92 -63 0
 -90 -63 0
 -85 -63 0
 -78 -63 0
 -77 -63 0
 -72 -63 0
 -66 -63 0
 -65 -63 0
 -64 -63 0
 -126 -62 0
 -117 -62 0
 -116 -62 0
 -112 -62 0
 -107 -62 0
 -104 -62 0
 -101 -62 0
 -96 -62 0
 -91 -62 0
 -89 -62 0
 -84 -62 0
 -77 -62 0
 -76 -62 0
 -71 -62 0
 -66 -62 0
 -65 -62 0
 -64 -62 0
 -63 -62 0
 -125 -61 0
 -121 -61 0
 -115 -61 0
 -111 -61 0
 -106 -61 0
 -103 -61 0
 -100 -61 0
 -95 -61 0
 -90 -61 0
 -88 -61 0
 -83 -61 0
 -76 -61 0
 -75 -61 0
 -70 -61 0
 -66 -61 0
 -65 -61 0
 -64 -61 0
 -63 -61 0
 -62 -61 0
 -130 -60 0
 -124 -60 0
 -120 -60 0
 -114 -60 0
 -110 -60 0
 -102 -60 0
 -99 -60 0
 -94 -60 0
 -89 -60 0
 -87 -60 0
 -82 -60 0
 -80 -60 0
 -75 -60 0
 -74 -60 0
 -69 -60 0
 -66 -60 0
 -65 -60 0
 -64 -60 0
 -63 -60 0
 -62 -60 0
 -61 -60 0
 -129 -59 0
 -123 -59 0
 -119 -59 0
 -113 -59 0
 -109 -59 0
 -101 -59 0
 -98 -59 0
 -93 -59 0
 -88 -59 0
 -86 -59 0
 -81 -59 0
 -79 -59 0
 -74 -59 0
 -73 -59 0
 -68 -59 0
 -66 -59 0
 -65 -59 0
 -64 -59 0
 -63 -59 0
 -62 -59 0
 -61 -59 0
 -60 -59 0
 -128 -58 0
 -122 -58 0
 -118 -58 0
 -112 -58 0
 -108 -58 0
 -105 -58 0
 -100 -58 0
 -97 -58 0
 -92 -58 0
 -87 -58 0
 -85 -58 0
 -78 -58 0
 -73 -58 0
 -72 -58 0
 -67 -58 0
 -66 -58 0
 -65 -58 0
 -64 -58 0
 -63 -58 0
 -62 -58 0
 -61 -58 0
 -60 -58 0
 -59 -58 0
 -127 -57 0
 -117 -57 0
 -116 -57 0
 -111 -57 0
 -107 -57 0
 -104 -57 0
 -99 -57 0
 -96 -57 0
 -91 -57 0
 -86 -57 0
 -84 -57 0
 -77 -57 0
 -72 -57 0
 -71 -57 0
 -66 -57 0
 -65 -57 0
 -64 -57 0
 -63 -57 0
 -62 -57 0
 -61 -57 0
 -60 -57 0
 -59 -57 0
 -58 -57 0
 -126 -56 0
 -121 -56 0
 -115 -56 0
 -110 -56 0
 -106 -56 0
 -103 -56 0
 -98 -56 0
 -95 -56 0
 -90 -56 0
 -85 -56 0
 -83 -56 0
 -76 -56 0
 -71 -56 0
 -70 -56 0
 -66 -56 0
 -65 -56 0
 -64 -56 0
 -63 -56 0
 -62 -56 0
 -61 -56 0
 -60 -56 0
 -59 -56 0
 -58 -56 0
 -57 -56 0
 -130 -55 0
 -125 -55 0
 -120 -55 0
 -114 -55 0
 -109 -55 0
 -102 -55 0
 -97 -55 0
 -94 -55 0
 -89 -55 0
 -84 -55 0
 -82 -55 0
 -75 -55 0
 -70 -55 0
 -69 -55 0
 -66 -55 0
 -65 -55 0
 -64 -55 0
 -63 -55 0
 -62 -55 0
 -61 -55 0
 -60 -55 0
 -59 -55 0
 -58 -55 0
 -57 -55 0
 -56 -55 0
 -129 -54 0
 -124 -54 0
 -119 -54 0
 -113 -54 0
 -108 -54 0
 -101 -54 0
 -96 -54 0
 -88 -54 0
 -83 -54 0
 -81 -54 0
 -74 -54 0
 -69 -54 0
 -68 -54 0
 -66 -54 0
 -65 -54 0
 -64 -54 0
 -63 -54 0
 -62 -54 0
 -61 -54 0
 -60 -54 0
 -59 -54 0
 -58 -54 0
 -57 -54 0
 -56 -54 0
 -55 -54 0
 -128 -53 0
 -123 -53 0
 -118 -53 0
 -112 -53 0
 -107 -53 0
 -100 -53 0
 -95 -53 0
 -87 -53 0
 -82 -53 0
 -73 -53 0
 -68 -53 0
 -67 -53 0
 -66 -53 0
 -65 -53 0
 -64 -53 0
 -63 -53 0
 -62 -53 0
 -61 -53 0
 -60 -53 0
 -59 -53 0
 -58 -53 0
 -57 -53 0
 -56 -53 0
 -55 -53 0
 -54 -53 0
 -127 -52 0
 -122 -52 0
 -117 -52 0
 -111 -52 0
 -106 -52 0
 -99 -52 0
 -94 -52 0
 -86 -52 0
 -81 -52 0
 -72 -52 0
 -67 -52 0
 -66 -52 0
 -65 -52 0
 -64 -52 0
 -63 -52 0
 -62 -52 0
 -61 -52 0
 -60 -52 0
 -59 -52 0
 -58 -52 0
 -57 -52 0
 -56 -52 0
 -55 -52 0
 -54 -52 0
 -53 -52 0
 -130 -51 0
 -126 -51 0
 -116 -51 0
 -112 -51 0
 -105 -51 0
 -101 -51 0
 -93 -51 0
 -89 -51 0
 -80 -51 0
 -76 -51 0
 -66 -51 0
 -62 -51 0
 -129 -50 0
 -125 -50 0
 -121 -50 0
 -115 -50 0
 -111 -50 0
 -104 -50 0
 -100 -50 0
 -92 -50 0
 -88 -50 0
 -79 -50 0
 -75 -50 0
 -66 -50 0
 -65 -50 0
 -61 -50 0
 -51 -50 0
 -128 -49 0
 -124 -49 0
 -120 -49 0
 -114 -49 0
 -110 -49 0
 -103 -49 0
 -99 -49 0
 -91 -49 0
 -87 -49 0
 -80 -49 0
 -78 -49 0
 -74 -49 0
 -65 -49 0
 -64 -49 0
 -60 -49 0
 -51 -49 0
 -50 -49 0
 -127 -48 0
 -123 -48 0
 -119 -48 0
 -113 -48 0
 -109 -48 0
 -102 -48 0
 -98 -48 0
 -93 -48 0
 -90 -48 0
 -86 -48 0
 -79 -48 0
 -77 -48 0
 -73 -48 0
 -64 -48 0
 -63 -48 0
 -59 -48 0
 -51 -48 0
 -50 -48 0
 -49 -48 0
 -126 -47 0
 -122 -47 0
 -118 -47 0
 -112 -47 0
 -108 -47 0
 -105 -47 0
 -101 -47 0
 -97 -47 0
 -92 -47 0
 -89 -47 0
 -85 -47 0
 -78 -47 0
 -76 -47 0
 -72 -47 0
 -63 -47 0
 -62 -47 0
 -58 -47 0
 -51 -47 0
 -50 -47 0
 -49 -47 0
 -48 -47 0
 -125 -46 0
 -121 -46 0
 -117 -46 0
 -116 -46 0
 -111 -46 0
 -107 -46 0
 -104 -46 0
 -100 -46 0
 -96 -46 0
 -91 -46 0
 -88 -46 0
 -84 -46 0
 -77 -46 0
 -75 -46 0
 -71 -46 0
 -66 -46 0
 -62 -46 0
 -61 -46 0
 -57 -46 0
 -51 -46 0
 -50 -46 0
 -49 -46 0
 -48 -46 0
 -47 -46 0
 -124 -45 0
 -120 -45 0
 -115 -45 0
 -110 -45 0
 -106 -45 0
 -103 -45 0
 -99 -45 0
 -95 -45 0
 -90 -45 0
 -87 -45 0
 -83 -45 0
 -80 -45 0
 -76 -45 0
 -74 -45 0
 -70 -45 0
 -65 -45 0
 -61 -45 0
 -60 -45 0
 -56 -45 0
 -51 -45 0
 -50 -45 0
 -49 -45 0
 -48 -45 0
 -47 -45 0
 -46 -45 0
 -130 -44 0
 -123 -44 0
 -119 -44 0
 -114 -44 0
 -109 -44 0
 -102 -44 0
 -98 -44 0
 -94 -44 0
 -93 -44 0
 -89 -44 0
 -86 -44 0
 -82 -44 0
 -79 -44 0
 -75 -44 0
 -73 -44 0
 -69 -44 0
 -64 -44 0
 -60 -44 0
 -59 -44 0
 -55 -44 0
 -51 -44 0
 -50 -44 0
 -49 -44 0
 -48 -44 0
 -47 -44 0
 -46 -44 0
 -45 -44 0
 -129 -43 0
 -122 -43 0
 -118 -43 0
 -113 -43 0
 -108 -43 0
 -105 -43 0
 -101 -43 0
 -97 -43 0
 -92 -43 0
 -88 -43 0
 -85 -43 0
 -81 -43 0
 -78 -43 0
 -74 -43 0
 -72 -43 0
 -68 -43 0
 -63 -43 0
 -59 -43 0
 -58 -43 0
 -54 -43 0
 -51 -43 0
 -50 -43 0
 -49 -43 0
 -48 -43 0
 -47 -43 0
 -46 -43 0
 -45 -43 0
 -44 -43 0
 -128 -42 0
 -117 -42 0
 -116 -42 0
 -112 -42 0
 -107 -42 0
 -104 -42 0
 -100 -42 0
 -96 -42 0
 -91 -42 0
 -87 -42 0
 -84 -42 0
 -77 -42 0
 -73 -42 0
 -71 -42 0
 -67 -42 0
 -62 -42 0
 -58 -42 0
 -57 -42 0
 -53 -42 0
 -51 -42 0
 -50 -42 0
 -49 -42 0
 -48 -42 0
 -47 -42 0
 -46 -42 0
 -45 -42 0
 -44 -42 0
 -43 -42 0
 -127 -41 0
 -115 -41 0
 -111 -41 0
 -106 -41 0
 -103 -41 0
 -99 -41 0
 -95 -41 0
 -90 -41 0
 -86 -41 0
 -83 -41 0
 -76 -41 0
 -72 -41 0
 -70 -41 0
 -61 -41 0
 -57 -41 0
 -56 -41 0
 -52 -41 0
 -51 -41 0
 -50 -41 0
 -49 -41 0
 -48 -41 0
 -47 -41 0
 -46 -41 0
 -45 -41 0
 -44 -41 0
 -43 -41 0
 -42 -41 0
 -130 -40 0
 -126 -40 0
 -121 -40 0
 -114 -40 0
 -110 -40 0
 -102 -40 0
 -98 -40 0
 -94 -40 0
 -89 -40 0
 -85 -40 0
 -82 -40 0
 -75 -40 0
 -71 -40 0
 -69 -40 0
 -60 -40 0
 -56 -40 0
 -55 -40 0
 -51 -40 0
 -50 -40 0
 -49 -40 0
 -48 -40 0
 -47 -40 0
 -46 -40 0
 -45 -40 0
 -44 -40 0
 -43 -40 0
 -42 -40 0
 -41 -40 0
 -129 -39 0
 -125 -39 0
 -120 -39 0
 -113 -39 0
 -109 -39 0
 -101 -39 0
 -97 -39 0
 -88 -39 0
 -84 -39 0
 -81 -39 0
 -74 -39 0
 -70 -39 0
 -68 -39 0
 -59 -39 0
 -55 -39 0
 -54 -39 0
 -51 -39 0
 -50 -39 0
 -49 -39 0
 -48 -39 0
 -47 -39 0
 -46 -39 0
 -45 -39 0
 -44 -39 0
 -43 -39 0
 -42 -39 0
 -41 -39 0
 -40 -39 0
 -128 -38 0
 -124 -38 0
 -119 -38 0
 -112 -38 0
 -108 -38 0
 -100 -38 0
 -96 -38 0
 -87 -38 0
 -83 -38 0
 -73 -38 0
 -69 -38 0
 -67 -38 0
 -58 -38 0
 -54 -38 0
 -53 -38 0
 -51 -38 0
 -50 -38 0
 -49 -38 0
 -48 -38 0
 -47 -38 0
 -46 -38 0
 -45 -38 0
 -44 -38 0
 -43 -38 0
 -42 -38 0
 -41 -38 0
 -40 -38 0
 -39 -38 0
 -127 -37 0
 -123 -37 0
 -118 -37 0
 -111 -37 0
 -107 -37 0
 -99 -37 0
 -95 -37 0
 -86 -37 0
 -82 -37 0
 -72 -37 0
 -68 -37 0
 -57 -37 0
 -53 -37 0
 -52 -37 0
 -51 -37 0
 -50 -37 0
 -49 -37 0
 -48 -37 0
 -47 -37 0
 -46 -37 0
 -45 -37 0
 -44 -37 0
 -43 -37 0
 -42 -37 0
 -41 -37 0
 -40 -37 0
 -39 -37 0
 -38 -37 0
 -126 -36 0
 -122 -36 0
 -121 -36 0
 -117 -36 0
 -110 -36 0
 -106 -36 0
 -98 -36 0
 -94 -36 0
 -85 -36 0
 -81 -36 0
 -71 -36 0
 -67 -36 0
 -56 -36 0
 -52 -36 0
 -51 -36 0
 -50 -36 0
 -49 -36 0
 -48 -36 0
 -47 -36 0
 -46 -36 0
 -45 -36 0
 -44 -36 0
 -43 -36 0
 -42 -36 0
 -41 -36 0
 -40 -36 0
 -39 -36 0
 -38 -36 0
 -37 -36 0
 -130 -35 0
 -127 -35 0
 -116 -35 0
 -113 -35 0
 -105 -35 0
 -102 -35 0
 -93 -35 0
 -90 -35 0
 -80 -35 0
 -77 -35 0
 -66 -35 0
 -63 -35 0
 -51 -35 0
 -48 -35 0
 -129 -34 0
 -126 -34 0
 -115 -34 0
 -112 -34 0
 -104 -34 0
 -101 -34 0
 -92 -34 0
 -89 -34 0
 -79 -34 0
 -76 -34 0
 -65 -34 0
 -62 -34 0
 -51 -34 0
 -50 -34 0
 -47 -34 0
 -35 -34 0
 -128 -33 0
 -125 -33 0
 -121 -33 0
 -114 -33 0
 -111 -33 0
 -103 -33 0
 -100 -33 0
 -91 -33 0
 -88 -33 0
 -78 -33 0
 -75 -33 0
 -66 -33 0
 -64 -33 0
 -61 -33 0
 -50 -33 0
 -49 -33 0
 -46 -33 0
 -35 -33 0
 -34 -33 0
 -127 -32 0
 -124 -32 0
 -120 -32 0
 -113 -32 0
 -110 -32 0
 -102 -32 0
 -99 -32 0
 -90 -32 0
 -87 -32 0
 -80 -32 0
 -77 -32 0
 -74 -32 0
 -65 -32 0
 -63 -32 0
 -60 -32 0
 -49 -32 0
 -48 -32 0
 -45 -32 0
 -35 -32 0
 -34 -32 0
 -33 -32 0
 -126 -31 0
 -123 -31 0
 -119 -31 0
 -112 -31 0
 -109 -31 0
 -101 -31 0
 -98 -31 0
 -93 -31 0
 -89 -31 0
 -86 -31 0
 -79 -31 0
 -76 -31 0
 -73 -31 0
 -64 -31 0
 -62 -31 0
 -59 -31 0
 -51 -31 0
 -48 -31 0
 -47 -31 0
 -44 -31 0
 -35 -31 0
 -34 -31 0
 -33 -31 0
 -32 -31 0
 -125 -30 0
 -122 -30 0
 -121 -30 0
 -118 -30 0
 -111 -30 0
 -108 -30 0
 -105 -30 0
 -100 -30 0
 -97 -30 0
 -92 -30 0
 -88 -30 0
 -85 -30 0
 -78 -30 0
 -75 -30 0
 -72 -30 0
 -66 -30 0
 -63 -30 0
 -61 -30 0
 -58 -30 0
 -50 -30 0
 -47 -30 0
 -46 -30 0
 -43 -30 0
 -35 -30 0
 -34 -30 0
 -33 -30 0
 -32 -30 0
 -31 -30 0
 -124 -29 0
 -120 -29 0
 -117 -29 0
 -116 -29 0
 -110 -29 0
 -107 -29 0
 -104 -29 0
 -99 -29 0
 -96 -29 0
 -91 -29 0
 -87 -29 0
 -84 -29 0
 -80 -29 0
 -77 -29 0
 -74 -29 0
 -71 -29 0
 -65 -29 0
 -62 -29 0
 -60 -29 0
 -57 -29 0
 -49 -29 0
 -46 -29 0
 -45 -29 0
 -42 -29 0
 -35 -29 0
 -34 -29 0
 -33 -29 0
 -32 -29 0
 -31 -29 0
 -30 -29 0
 -123 -28 0
 -119 -28 0
 -115 -28 0
 -109 -28 0
 -106 -28 0
 -103 -28 0
 -98 -28 0
 -95 -28 0
 -93 -28 0
 -90 -28 0
 -86 -28 0
 -83 -28 0
 -79 -28 0
 -76 -28 0
 -73 -28 0
 -70 -28 0
 -64 -28 0
 -61 -28 0
 -59 -28 0
 -56 -28 0
 -48 -28 0
 -45 -28 0
 -44 -28 0
 -41 -28 0
 -35 -28 0
 -34 -28 0
 -33 -28 0
 -32 -28 0
 -31 -28 0
 -30 -28 0
 -29 -28 0
 -130 -27 0
 -122 -27 0
 -118 -27 0
 -114 -27 0
 -108 -27 0
 -105 -27 0
 -102 -27 0
 -97 -27 0
 -94 -27 0
 -92 -27 0
 -89 -27 0
 -85 -27 0
 -82 -27 0
 -78 -27 0
 -75 -27 0
 -72 -27 0
 -69 -27 0
 -63 -27 0
 -60 -27 0
 -58 -27 0
 -55 -27 0
 -47 -27 0
 -44 -27 0
 -43 -27 0
 -40 -27 0
 -35 -27 0
 -34 -27 0
 -33 -27 0
 -32 -27 0
 -31 -27 0
 -30 -27 0
 -29 -27 0
 -28 -27 0
 -129 -26 0
 -117 -26 0
 -116 -26 0
 -113 -26 0
 -107 -26 0
 -104 -26 0
 -101 -26 0
 -96 -26 0
 -91 -26 0
 -88 -26 0
 -84 -26 0
 -81 -26 0
 -77 -26 0
 -74 -26 0
 -71 -26 0
 -68 -26 0
 -62 -26 0
 -59 -26 0
 -57 -26 0
 -54 -26 0
 -46 -26 0
 -43 -26 0
 -42 -26 0
 -39 -26 0
 -35 -26 0
 -34 -26 0
 -33 -26 0
 -32 -26 0
 -31 -26 0
 -30 -26 0
 -29 -26 0
 -28 -26 0
 -27 -26 0
 -128 -25 0
 -115 -25 0
 -112 -25 0
 -106 -25 0
 -103 -25 0
 -100 -25 0
 -95 -25 0
 -90 -25 0
 -87 -25 0
 -83 -25 0
 -76 -25 0
 -73 -25 0
 -70 -25 0
 -67 -25 0
 -61 -25 0
 -58 -25 0
 -56 -25 0
 -53 -25 0
 -45 -25 0
 -42 -25 0
 -41 -25 0
 -38 -25 0
 -35 -25 0
 -34 -25 0
 -33 -25 0
 -32 -25 0
 -31 -25 0
 -30 -25 0
 -29 -25 0
 -28 -25 0
 -27 -25 0
 -26 -25 0
 -130 -24 0
 -127 -24 0
 -114 -24 0
 -111 -24 0
 -102 -24 0
 -99 -24 0
 -94 -24 0
 -89 -24 0
 -86 -24 0
 -82 -24 0
 -75 -24 0
 -72 -24 0
 -69 -24 0
 -60 -24 0
 -57 -24 0
 -55 -24 0
 -52 -24 0
 -44 -24 0
 -41 -24 0
 -40 -24 0
 -37 -24 0
 -35 -24 0
 -34 -24 0
 -33 -24 0
 -32 -24 0
 -31 -24 0
 -30 -24 0
 -29 -24 0
 -28 -24 0
 -27 -24 0
 -26 -24 0
 -25 -24 0
 -129 -23 0
 -126 -23 0
 -121 -23 0
 -113 -23 0
 -110 -23 0
 -101 -23 0
 -98 -23 0
 -88 -23 0
 -85 -23 0
 -81 -23 0
 -74 -23 0
 -71 -23 0
 -68 -23 0
 -59 -23 0
 -56 -23 0
 -54 -23 0
 -43 -23 0
 -40 -23 0
 -39 -23 0
 -36 -23 0
 -35 -23 0
 -34 -23 0
 -33 -23 0
 -32 -23 0
 -31 -23 0
 -30 -23 0
 -29 -23 0
 -28 -23 0
 -27 -23 0
 -26 -23 0
 -25 -23 0
 -24 -23 0
 -128 -22 0
 -125 -22 0
 -120 -22 0
 -112 -22 0
 -109 -22 0
 -100 -22 0
 -97 -22 0
 -87 -22 0
 -84 -22 0
 -73 -22 0
 -70 -22 0
 -67 -22 0
 -58 -22 0
 -55 -22 0
 -53 -22 0
 -42 -22 0
 -39 -22 0
 -38 -22 0
 -35 -22 0
 -34 -22 0
 -33 -22 0
 -32 -22 0
 -31 -22 0
 -30 -22 0
 -29 -22 0
 -28 -22 0
 -27 -22 0
 -26 -22 0
 -25 -22 0
 -24 -22 0
 -23 -22 0
 -127 -21 0
 -124 -21 0
 -119 -21 0
 -111 -21 0
 -108 -21 0
 -99 -21 0
 -96 -21 0
 -86 -21 0
 -83 -21 0
 -72 -21 0
 -69 -21 0
 -57 -21 0
 -54 -21 0
 -52 -21 0
 -41 -21 0
 -38 -21 0
 -37 -21 0
 -35 -21 0
 -34 -21 0
 -33 -21 0
 -32 -21 0
 -31 -21 0
 -30 -21 0
 -29 -21 0
 -28 -21 0
 -27 -21 0
 -26 -21 0
 -25 -21 0
 -24 -21 0
 -23 -21 0
 -22 -21 0
 -126 -20 0
 -123 -20 0
 -121 -20 0
 -118 -20 0
 -110 -20 0
 -107 -20 0
 -98 -20 0
 -95 -20 0
 -85 -20 0
 -82 -20 0
 -71 -20 0
 -68 -20 0
 -56 -20 0
 -53 -20 0
 -40 -20 0
 -37 -20 0
 -36 -20 0
 -35 -20 0
 -34 -20 0
 -33 -20 0
 -32 -20 0
 -31 -20 0
 -30 -20 0
 -29 -20 0
 -28 -20 0
 -27 -20 0
 -26 -20 0
 -25 -20 0
 -24 -20 0
 -23 -20 0
 -22 -20 0
 -21 -20 0
 -125 -19 0
 -122 -19 0
 -120 -19 0
 -117 -19 0
 -109 -19 0
 -106 -19 0
 -97 -19 0
 -94 -19 0
 -84 -19 0
 -81 -19 0
 -70 -19 0
 -67 -19 0
 -55 -19 0
 -52 -19 0
 -39 -19 0
 -36 -19 0
 -35 -19 0
 -34 -19 0
 -33 -19 0
 -32 -19 0
 -31 -19 0
 -30 -19 0
 -29 -19 0
 -28 -19 0
 -27 -19 0
 -26 -19 0
 -25 -19 0
 -24 -19 0
 -23 -19 0
 -22 -19 0
 -21 -19 0
 -20 -19 0
 -130 -18 0
 -128 -18 0
 -116 -18 0
 -114 -18 0
 -105 -18 0
 -103 -18 0
 -93 -18 0
 -91 -18 0
 -80 -18 0
 -78 -18 0
 -66 -18 0
 -64 -18 0
 -51 -18 0
 -49 -18 0
 -35 -18 0
 -33 -18 0
 -129 -17 0
 -127 -17 0
 -115 -17 0
 -113 -17 0
 -104 -17 0
 -102 -17 0
 -92 -17 0
 -90 -17 0
 -79 -17 0
 -77 -17 0
 -65 -17 0
 -63 -17 0
 -50 -17 0
 -48 -17 0
 -35 -17 0
 -34 -17 0
 -32 -17 0
 -18 -17 0
 -128 -16 0
 -126 -16 0
 -114 -16 0
 -112 -16 0
 -103 -16 0
 -101 -16 0
 -91 -16 0
 -89 -16 0
 -78 -16 0
 -76 -16 0
 -64 -16 0
 -62 -16 0
 -51 -16 0
 -49 -16 0
 -47 -16 0
 -34 -16 0
 -33 -16 0
 -31 -16 0
 -18 -16 0
 -17 -16 0
 -127 -15 0
 -125 -15 0
 -121 -15 0
 -113 -15 0
 -111 -15 0
 -102 -15 0
 -100 -15 0
 -90 -15 0
 -88 -15 0
 -77 -15 0
 -75 -15 0
 -66 -15 0
 -63 -15 0
 -61 -15 0
 -50 -15 0
 -48 -15 0
 -46 -15 0
 -35 -15 0
 -33 -15 0
 -32 -15 0
 -30 -15 0
 -18 -15 0
 -17 -15 0
 -16 -15 0
 -126 -14 0
 -124 -14 0
 -120 -14 0
 -112 -14 0
 -110 -14 0
 -101 -14 0
 -99 -14 0
 -89 -14 0
 -87 -14 0
 -80 -14 0
 -76 -14 0
 -74 -14 0
 -65 -14 0
 -62 -14 0
 -60 -14 0
 -51 -14 0
 -49 -14 0
 -47 -14 0
 -45 -14 0
 -34 -14 0
 -32 -14 0
 -31 -14 0
 -29 -14 0
 -18 -14 0
 -17 -14 0
 -16 -14 0
 -15 -14 0
 -125 -13 0
 -123 -13 0
 -121 -13 0
 -119 -13 0
 -111 -13 0
 -109 -13 0
 -100 -13 0
 -98 -13 0
 -93 -13 0
 -88 -13 0
 -86 -13 0
 -79 -13 0
 -75 -13 0
 -73 -13 0
 -66 -13 0
 -64 -13 0
 -61 -13 0
 -59 -13 0
 -50 -13 0
 -48 -13 0
 -46 -13 0
 -44 -13 0
 -33 -13 0
 -31 -13 0
 -30 -13 0
 -28 -13 0
 -18 -13 0
 -17 -13 0
 -16 -13 0
 -15 -13 0
 -14 -13 0
 -124 -12 0
 -122 -12 0
 -120 -12 0
 -118 -12 0
 -110 -12 0
 -108 -12 0
 -105 -12 0
 -99 -12 0
 -97 -12 0
 -92 -12 0
 -87 -12 0
 -85 -12 0
 -80 -12 0
 -78 -12 0
 -74 -12 0
 -72 -12 0
 -65 -12 0
 -63 -12 0
 -60 -12 0
 -58 -12 0
 -49 -12 0
 -47 -12 0
 -45 -12 0
 -43 -12 0
 -32 -12 0
 -30 -12 0
 -29 -12 0
 -27 -12 0
 -18 -12 0
 -17 -12 0
 -16 -12 0
 -15 -12 0
 -14 -12 0
 -13 -12 0
 -123 -11 0
 -119 -11 0
 -117 -11 0
 -116 -11 0
 -109 -11 0
 -107 -11 0
 -104 -11 0
 -98 -11 0
 -96 -11 0
 -93 -11 0
 -91 -11 0
 -86 -11 0
 -84 -11 0
 -79 -11 0
 -77 -11 0
 -73 -11 0
 -71 -11 0
 -64 -11 0
 -62 -11 0
 -59 -11 0
 -57 -11 0
 -48 -11 0
 -46 -11 0
 -44 -11 0
 -42 -11 0
 -31 -11 0
 -29 -11 0
 -28 -11 0
 -26 -11 0
 -18 -11 0
 -17 -11 0
 -16 -11 0
 -15 -11 0
 -14 -11 0
 -13 -11 0
 -12 -11 0
 -122 -10 0
 -118 -10 0
 -115 -10 0
 -108 -10 0
 -106 -10 0
 -105 -10 0
 -103 -10 0
 -97 -10 0
 -95 -10 0
 -92 -10 0
 -90 -10 0
 -85 -10 0
 -83 -10 0
 -78 -10 0
 -76 -10 0
 -72 -10 0
 -70 -10 0
 -63 -10 0
 -61 -10 0
 -58 -10 0
 -56 -10 0
 -47 -10 0
 -45 -10 0
 -43 -10 0
 -41 -10 0
 -30 -10 0
 -28 -10 0
 -27 -10 0
 -25 -10 0
 -18 -10 0
 -17 -10 0
 -16 -10 0
 -15 -10 0
 -14 -10 0
 -13 -10 0
 -12 -10 0
 -11 -10 0
 -130 -9 0
 -117 -9 0
 -116 -9 0
 -114 -9 0
 -107 -9 0
 -104 -9 0
 -102 -9 0
 -96 -9 0
 -94 -9 0
 -91 -9 0
 -89 -9 0
 -84 -9 0
 -82 -9 0
 -77 -9 0
 -75 -9 0
 -71 -9 0
 -69 -9 0
 -62 -9 0
 -60 -9 0
 -57 -9 0
 -55 -9 0
 -46 -9 0
 -44 -9 0
 -42 -9 0
 -40 -9 0
 -29 -9 0
 -27 -9 0
 -26 -9 0
 -24 -9 0
 -18 -9 0
 -17 -9 0
 -16 -9 0
 -15 -9 0
 -14 -9 0
 -13 -9 0
 -12 -9 0
 -11 -9 0
 -10 -9 0
 -129 -8 0
 -115 -8 0
 -113 -8 0
 -106 -8 0
 -103 -8 0
 -101 -8 0
 -95 -8 0
 -90 -8 0
 -88 -8 0
 -83 -8 0
 -81 -8 0
 -76 -8 0
 -74 -8 0
 -70 -8 0
 -68 -8 0
 -61 -8 0
 -59 -8 0
 -56 -8 0
 -54 -8 0
 -45 -8 0
 -43 -8 0
 -41 -8 0
 -39 -8 0
 -28 -8 0
 -26 -8 0
 -25 -8 0
 -23 -8 0
 -18 -8 0
 -17 -8 0
 -16 -8 0
 -15 -8 0
 -14 -8 0
 -13 -8 0
 -12 -8 0
 -11 -8 0
 -10 -8 0
 -9 -8 0
 -130 -7 0
 -128 -7 0
 -114 -7 0
 -112 -7 0
 -102 -7 0
 -100 -7 0
 -94 -7 0
 -89 -7 0
 -87 -7 0
 -82 -7 0
 -75 -7 0
 -73 -7 0
 -69 -7 0
 -67 -7 0
 -60 -7 0
 -58 -7 0
 -55 -7 0
 -53 -7 0
 -44 -7 0
 -42 -7 0
 -40 -7 0
 -38 -7 0
 -27 -7 0
 -25 -7 0
 -24 -7 0
 -22 -7 0
 -18 -7 0
 -17 -7 0
 -16 -7 0
 -15 -7 0
 -14 -7 0
 -13 -7 0
 -12 -7 0
 -11 -7 0
 -10 -7 0
 -9 -7 0
 -8 -7 0
 -129 -6 0
 -127 -6 0
 -113 -6 0
 -111 -6 0
 -101 -6 0
 -99 -6 0
 -88 -6 0
 -86 -6 0
 -81 -6 0
 -74 -6 0
 -72 -6 0
 -68 -6 0
 -59 -6 0
 -57 -6 0
 -54 -6 0
 -52 -6 0
 -43 -6 0
 -41 -6 0
 -39 -6 0
 -37 -6 0
 -26 -6 0
 -24 -6 0
 -23 -6 0
 -21 -6 0
 -18 -6 0
 -17 -6 0
 -16 -6 0
 -15 -6 0
 -14 -6 0
 -13 -6 0
 -12 -6 0
 -11 -6 0
 -10 -6 0
 -9 -6 0
 -8 -6 0
 -7 -6 0
 -128 -5 0
 -126 -5 0
 -121 -5 0
 -112 -5 0
 -110 -5 0
 -100 -5 0
 -98 -5 0
 -87 -5 0
 -85 -5 0
 -73 -5 0
 -71 -5 0
 -67 -5 0
 -58 -5 0
 -56 -5 0
 -53 -5 0
 -42 -5 0
 -40 -5 0
 -38 -5 0
 -36 -5 0
 -25 -5 0
 -23 -5 0
 -22 -5 0
 -20 -5 0
 -18 -5 0
 -17 -5 0
 -16 -5 0
 -15 -5 0
 -14 -5 0
 -13 -5 0
 -12 -5 0
 -11 -5 0
 -10 -5 0
 -9 -5 0
 -8 -5 0
 -7 -5 0
 -6 -5 0
 -127 -4 0
 -125 -4 0
 -120 -4 0
 -111 -4 0
 -109 -4 0
 -99 -4 0
 -97 -4 0
 -86 -4 0
 -84 -4 0
 -72 -4 0
 -70 -4 0
 -57 -4 0
 -55 -4 0
 -52 -4 0
 -41 -4 0
 -39 -4 0
 -37 -4 0
 -24 -4 0
 -22 -4 0
 -21 -4 0
 -19 -4 0
 -18 -4 0
 -17 -4 0
 -16 -4 0
 -15 -4 0
 -14 -4 0
 -13 -4 0
 -12 -4 0
 -11 -4 0
 -10 -4 0
 -9 -4 0
 -8 -4 0
 -7 -4 0
 -6 -4 0
 -5 -4 0
 -126 -3 0
 -124 -3 0
 -121 -3 0
 -119 -3 0
 -110 -3 0
 -108 -3 0
 -98 -3 0
 -96 -3 0
 -85 -3 0
 -83 -3 0
 -71 -3 0
 -69 -3 0
 -56 -3 0
 -54 -3 0
 -40 -3 0
 -38 -3 0
 -36 -3 0
 -23 -3 0
 -21 -3 0
 -20 -3 0
 -18 -3 0
 -17 -3 0
 -16 -3 0
 -15 -3 0
 -14 -3 0
 -13 -3 0
 -12 -3 0
 -11 -3 0
 -10 -3 0
 -9 -3 0
 -8 -3 0
 -7 -3 0
 -6 -3 0
 -5 -3 0
 -4 -3 0
 -125 -2 0
 -123 -2 0
 -120 -2 0
 -118 -2 0
 -109 -2 0
 -107 -2 0
 -97 -2 0
 -95 -2 0
 -84 -2 0
 -82 -2 0
 -70 -2 0
 -68 -2 0
 -55 -2 0
 -53 -2 0
 -39 -2 0
 -37 -2 0
 -22 -2 0
 -20 -2 0
 -19 -2 0
 -18 -2 0
 -17 -2 0
 -16 -2 0
 -15 -2 0
 -14 -2 0
 -13 -2 0
 -12 -2 0
 -11 -2 0
 -10 -2 0
 -9 -2 0
 -8 -2 0
 -7 -2 0
 -6 -2 0
 -5 -2 0
 -4 -2 0
 -3 -2 0
 -124 -1 0
 -122 -1 0
 -119 -1 0
 -117 -1 0
 -108 -1 0
 -106 -1 0
 -96 -1 0
 -94 -1 0
 -83 -1 0
 -81 -1 0
 -69 -1 0
 -67 -1 0
 -54 -1 0
 -52 -1 0
 -38 -1 0
 -36 -1 0
 -21 -1 0
 -19 -1 0
 -18 -1 0
 -17 -1 0
 -16 -1 0
 -15 -1 0
 -14 -1 0
 -13 -1 0
 -12 -1 0
 -11 -1 0
 -10 -1 0
 -9 -1 0
 -8 -1 0
 -7 -1 0
 -6 -1 0
 -5 -1 0
 -4 -1 0
 -3 -1 0
 -2 -1 0
 130 116 105 93 80 66 51 35 18 0
 129 115 104 92 79 65 50 34 17 0
 128 114 103 91 78 64 49 33 18 16 0
 127 113 102 90 77 63 48 35 32 17 15 0
 126 112 101 89 76 62 51 47 34 31 16 14 0
 125 121 111 100 88 75 66 61 50 46 33 30 15 13 0
 124 120 110 99 87 80 74 65 60 49 45 32 29 14 12 0
 123 119 109 98 93 86 79 73 64 59 48 44 31 28 13 11 0
 122 118 108 105 97 92 85 78 72 63 58 47 43 30 27 12 10 0
 117 116 107 104 96 91 84 77 71 62 57 46 42 29 26 11 9 0
 115 106 103 95 90 83 76 70 61 56 45 41 28 25 10 8 0
 130 114 102 94 89 82 75 69 60 55 44 40 27 24 9 7 0
 129 113 101 88 81 74 68 59 54 43 39 26 23 8 6 0
 128 112 100 87 73 67 58 53 42 38 25 22 7 5 0
 127 111 99 86 72 57 52 41 37 24 21 6 4 0
 126 121 110 98 85 71 56 40 36 23 20 5 3 0
 125 120 109 97 84 70 55 39 22 19 4 2 0
 124 119 108 96 83 69 54 38 21 3 1 0
 123 118 107 95 82 68 53 37 20 2 0
 122 117 106 94 81 67 52 36 19 1 0
 130 129 128 127 126 125 124 123 122 0
 121 120 119 118 117 0
 116 115 114 113 112 111 110 109 108 107 106 0
 105 104 103 102 101 100 99 98 97 96 95 94 0
 93 92 91 90 89 88 87 86 85 84 83 82 81 0
 80 79 78 77 76 75 74 73 72 71 70 69 68 67 0
 66 65 64 63 62 61 60 59 58 57 56 55 54 53 52 0
 51 50 49 48 47 46 45 44 43 42 41 40 39 38 37 36 0
 35 34 33 32 31 30 29 28 27 26 25 24 23 22 21 20 19 0
 18 17 16 15 14 13 12 11 10 9 8 7 6 5 4 3 2 1 0
